120 150

58
47
52
53
52
55
51
52
59
60
43
51
47
56
45
58
50
45
49
43
60
50
60
52
51
52
42
52
46
40
47
50
51
49
53
52
49
45
50
55
51
53
58
46
56
51
52
55
43
52
41
42
46
51
47
45
59
56
54
40
60
48
42
43
58
49
51
46
47
59
52
48
52
43
47
51
57
48
52
51
57
47
48
49
58
59
43
43
51
56
53
55
47
47
53
40
56
60
60
53
41
41
56
58
46
41
52
55
59
45
46
43
45
46
60
49
52
49
41
45